GLKH-1.1/TMP/mEgtspf.pid4132.atsp
NAME : mEgtspf.pid4132.gtsp
TYPE : ATSP
DIMENSION : 50
EDGE_WEIGHT_TYPE : EXPLICIT
EDGE_WEIGHT_FORMAT : FULL_MATRIX
EDGE_WEIGHT_SECTION
999999 5368709 5368709 5368709 5368709 5368709 5368709 5368709 5368709 5368709 5368722 5368721 5368722 5368723 5368744 5368743 5368744 5368745 5368731 5368732 5368733 5368732 5368746 5368745 5368746 5368747 5368748 5368747 5368748 5368749 5368749 5368748 5368749 5368750 5368750 5368749 5368750 5368751 5368733 5368734 5368733 5368732 5368735 5368736 5368735 5368734 5368757 5368756 5368757 5368758 
5368709 999999 5368709 5368709 5368709 5368709 5368709 5368709 5368709 5368709 5368720 5368721 5368722 5368721 5368740 5368739 5368740 5368741 5368747 5368746 5368747 5368748 5368726 5368725 5368726 5368727 5368738 5368737 5368738 5368739 5368731 5368730 5368731 5368732 5368730 5368729 5368730 5368731 5368719 5368718 5368717 5368718 5368721 5368720 5368719 5368720 5368737 5368736 5368737 5368738 
5368709 5368709 999999 5368709 5368709 5368709 5368709 5368709 5368709 5368709 5368743 5368744 5368743 5368742 5368721 5368722 5368721 5368720 5368722 5368723 5368724 5368723 5368745 5368746 5368745 5368744 5368723 5368724 5368723 5368722 5368730 5368731 5368730 5368729 5368741 5368742 5368741 5368740 5368756 5368757 5368756 5368755 5368758 5368759 5368758 5368757 5368732 5368733 5368732 5368731 
5368709 5368709 5368709 999999 5368709 5368709 5368709 5368709 5368709 5368709 5368739 5368740 5368741 5368740 5368721 5368722 5368723 5368722 5368734 5368735 5368736 5368735 5368725 5368726 5368725 5368724 5368719 5368720 5368721 5368720 5368712 5368713 5368714 5368713 5368721 5368722 5368721 5368720 5368736 5368737 5368736 5368735 5368738 5368739 5368738 5368737 5368718 5368717 5368718 5368719 
5368709 5368709 5368709 5368709 999999 5368709 5368709 5368709 5368709 5368709 5368723 5368722 5368721 5368722 5368745 5368744 5368743 5368744 5368742 5368741 5368742 5368743 5368747 5368746 5368745 5368746 5368749 5368748 5368747 5368748 5368750 5368749 5368748 5368749 5368751 5368750 5368749 5368750 5368728 5368727 5368726 5368727 5368730 5368729 5368728 5368729 5368758 5368757 5368756 5368757 
5368709 5368709 5368709 5368709 5368709 999999 5368709 5368709 5368709 5368709 5368730 5368731 5368730 5368729 5368742 5368741 5368740 5368741 5368725 5368724 5368723 5368724 5368744 5368743 5368742 5368743 5368746 5368745 5368744 5368745 5368747 5368746 5368745 5368746 5368748 5368747 5368746 5368747 5368743 5368744 5368743 5368742 5368745 5368746 5368745 5368744 5368755 5368754 5368753 5368754 
5368709 5368709 5368709 5368709 5368709 5368709 999999 5368709 5368709 5368709 5368732 5368733 5368732 5368731 5368744 5368743 5368744 5368745 5368751 5368750 5368751 5368752 5368720 5368719 5368720 5368721 5368742 5368741 5368742 5368743 5368735 5368734 5368735 5368736 5368724 5368723 5368724 5368725 5368727 5368728 5368727 5368726 5368725 5368726 5368725 5368724 5368733 5368732 5368733 5368734 
5368709 5368709 5368709 5368709 5368709 5368709 5368709 999999 5368709 5368709 5368720 5368719 5368718 5368719 5368742 5368741 5368740 5368741 5368737 5368738 5368739 5368738 5368744 5368743 5368742 5368743 5368746 5368745 5368744 5368745 5368747 5368746 5368745 5368746 5368748 5368747 5368746 5368747 5368727 5368728 5368727 5368726 5368729 5368730 5368729 5368728 5368755 5368754 5368753 5368754 
5368709 5368709 5368709 5368709 5368709 5368709 5368709 5368709 999999 5368709 5368728 5368729 5368730 5368729 5368748 5368747 5368748 5368749 5368755 5368754 5368755 5368756 5368724 5368723 5368724 5368725 5368746 5368745 5368746 5368747 5368739 5368738 5368739 5368740 5368728 5368727 5368728 5368729 5368723 5368724 5368725 5368724 5368721 5368722 5368723 5368722 5368737 5368736 5368737 5368738 
5368709 5368709 5368709 5368709 5368709 5368709 5368709 5368709 5368709 999999 5368731 5368730 5368729 5368730 5368745 5368744 5368743 5368744 5368728 5368727 5368726 5368727 5368747 5368746 5368745 5368746 5368749 5368748 5368747 5368748 5368750 5368749 5368748 5368749 5368751 5368750 5368749 5368750 5368744 5368743 5368742 5368743 5368746 5368745 5368744 5368745 5368758 5368757 5368756 5368757 
5368709 5368709 5368709 5368709 5368709 5368709 5368709 5368709 5368709 5368709 999999 0 10737418 10737418 5368732 5368731 5368732 5368733 5368739 5368740 5368741 5368740 5368736 5368735 5368734 5368735 5368738 5368737 5368736 5368737 5368739 5368738 5368737 5368738 5368740 5368739 5368738 5368739 5368725 5368726 5368725 5368724 5368727 5368728 5368727 5368726 5368747 5368746 5368745 5368746 
5368709 5368709 5368709 5368709 5368709 5368709 5368709 5368709 5368709 5368709 10737418 999999 0 10737418 5368733 5368732 5368733 5368734 5368740 5368741 5368742 5368741 5368735 5368734 5368735 5368736 5368737 5368736 5368737 5368738 5368738 5368737 5368738 5368739 5368739 5368738 5368739 5368740 5368724 5368725 5368724 5368723 5368726 5368727 5368726 5368725 5368746 5368745 5368746 5368747 
5368709 5368709 5368709 5368709 5368709 5368709 5368709 5368709 5368709 5368709 10737418 10737418 999999 0 5368734 5368733 5368734 5368735 5368741 5368740 5368741 5368742 5368736 5368735 5368736 5368737 5368738 5368737 5368738 5368739 5368739 5368738 5368739 5368740 5368740 5368739 5368740 5368741 5368725 5368724 5368723 5368724 5368727 5368726 5368725 5368726 5368747 5368746 5368747 5368748 
5368709 5368709 5368709 5368709 5368709 5368709 5368709 5368709 5368709 5368709 0 10737418 10737418 999999 5368733 5368732 5368733 5368734 5368740 5368739 5368740 5368741 5368737 5368736 5368735 5368736 5368739 5368738 5368737 5368738 5368740 5368739 5368738 5368739 5368741 5368740 5368739 5368740 5368726 5368725 5368724 5368725 5368728 5368727 5368726 5368727 5368748 5368747 5368746 5368747 
5368709 5368709 5368709 5368709 5368709 5368709 5368709 5368709 5368709 5368709 5368734 5368735 5368734 5368733 999999 0 10737418 10737418 5368729 5368730 5368729 5368728 5368736 5368737 5368736 5368735 5368716 5368715 5368714 5368715 5368721 5368722 5368721 5368720 5368732 5368733 5368732 5368731 5368747 5368748 5368747 5368746 5368749 5368750 5368749 5368748 5368725 5368724 5368723 5368724 
5368709 5368709 5368709 5368709 5368709 5368709 5368709 5368709 5368709 5368709 5368733 5368734 5368733 5368732 10737418 999999 0 10737418 5368728 5368729 5368730 5368729 5368735 5368736 5368735 5368734 5368715 5368714 5368715 5368716 5368720 5368721 5368720 5368719 5368731 5368732 5368731 5368730 5368746 5368747 5368746 5368745 5368748 5368749 5368748 5368747 5368724 5368723 5368724 5368725 
5368709 5368709 5368709 5368709 5368709 5368709 5368709 5368709 5368709 5368709 5368732 5368733 5368732 5368731 10737418 10737418 999999 0 5368727 5368728 5368729 5368728 5368736 5368735 5368734 5368735 5368716 5368715 5368716 5368717 5368721 5368720 5368719 5368720 5368732 5368731 5368730 5368731 5368747 5368746 5368745 5368746 5368749 5368748 5368747 5368748 5368725 5368724 5368725 5368726 
5368709 5368709 5368709 5368709 5368709 5368709 5368709 5368709 5368709 5368709 5368733 5368734 5368733 5368732 0 10737418 10737418 999999 5368728 5368729 5368728 5368727 5368737 5368736 5368735 5368736 5368717 5368716 5368715 5368716 5368722 5368721 5368720 5368721 5368733 5368732 5368731 5368732 5368748 5368747 5368746 5368747 5368750 5368749 5368748 5368749 5368726 5368725 5368724 5368725 
5368709 5368709 5368709 5368709 5368709 5368709 5368709 5368709 5368709 5368709 5368741 5368742 5368741 5368740 5368729 5368728 5368727 5368728 999999 0 10737418 10737418 5368743 5368744 5368743 5368742 5368733 5368732 5368731 5368732 5368734 5368733 5368732 5368733 5368739 5368740 5368739 5368738 5368754 5368755 5368754 5368753 5368756 5368757 5368756 5368755 5368742 5368741 5368740 5368741 
5368709 5368709 5368709 5368709 5368709 5368709 5368709 5368709 5368709 5368709 5368740 5368741 5368740 5368739 5368728 5368727 5368728 5368729 10737418 999999 0 10737418 5368742 5368743 5368742 5368741 5368732 5368731 5368732 5368733 5368733 5368732 5368733 5368734 5368738 5368739 5368738 5368737 5368753 5368754 5368753 5368752 5368755 5368756 5368755 5368754 5368741 5368740 5368741 5368742 
5368709 5368709 5368709 5368709 5368709 5368709 5368709 5368709 5368709 5368709 5368741 5368740 5368739 5368740 5368729 5368728 5368729 5368730 10737418 10737418 999999 0 5368743 5368742 5368741 5368742 5368733 5368732 5368733 5368734 5368734 5368733 5368734 5368735 5368739 5368738 5368737 5368738 5368754 5368753 5368752 5368753 5368756 5368755 5368754 5368755 5368742 5368741 5368742 5368743 
5368709 5368709 5368709 5368709 5368709 5368709 5368709 5368709 5368709 5368709 5368742 5368741 5368740 5368741 5368730 5368729 5368728 5368729 0 10737418 10737418 999999 5368744 5368743 5368742 5368743 5368734 5368733 5368732 5368733 5368735 5368734 5368733 5368734 5368740 5368739 5368738 5368739 5368755 5368754 5368753 5368754 5368757 5368756 5368755 5368756 5368743 5368742 5368741 5368742 
5368709 5368709 5368709 5368709 5368709 5368709 5368709 5368709 5368709 5368709 5368736 5368737 5368736 5368735 5368734 5368735 5368736 5368735 5368741 5368742 5368743 5368742 999999 0 10737418 10737418 5368732 5368733 5368734 5368733 5368725 5368726 5368727 5368726 5368714 5368713 5368714 5368715 5368731 5368732 5368731 5368730 5368729 5368730 5368729 5368728 5368723 5368724 5368725 5368724 
5368709 5368709 5368709 5368709 5368709 5368709 5368709 5368709 5368709 5368709 5368735 5368736 5368737 5368736 5368735 5368736 5368737 5368736 5368742 5368743 5368744 5368743 10737418 999999 0 10737418 5368733 5368734 5368735 5368734 5368726 5368727 5368728 5368727 5368715 5368714 5368715 5368716 5368730 5368731 5368732 5368731 5368728 5368729 5368730 5368729 5368724 5368725 5368726 5368725 
5368709 5368709 5368709 5368709 5368709 5368709 5368709 5368709 5368709 5368709 5368734 5368735 5368736 5368735 5368736 5368735 5368736 5368737 5368743 5368742 5368743 5368744 10737418 10737418 999999 0 5368734 5368733 5368734 5368735 5368727 5368726 5368727 5368728 5368716 5368715 5368716 5368717 5368729 5368730 5368731 5368730 5368727 5368728 5368729 5368728 5368725 5368724 5368725 5368726 
5368709 5368709 5368709 5368709 5368709 5368709 5368709 5368709 5368709 5368709 5368735 5368736 5368735 5368734 5368735 5368734 5368735 5368736 5368742 5368741 5368742 5368743 0 10737418 10737418 999999 5368733 5368732 5368733 5368734 5368726 5368725 5368726 5368727 5368715 5368714 5368715 5368716 5368730 5368731 5368730 5368729 5368728 5368729 5368728 5368727 5368724 5368723 5368724 5368725 
5368709 5368709 5368709 5368709 5368709 5368709 5368709 5368709 5368709 5368709 5368738 5368739 5368738 5368737 5368716 5368717 5368716 5368715 5368733 5368734 5368733 5368732 5368734 5368735 5368734 5368733 999999 0 10737418 10737418 5368719 5368720 5368719 5368718 5368730 5368731 5368730 5368729 5368745 5368746 5368745 5368744 5368747 5368748 5368747 5368746 5368721 5368720 5368719 5368720 
5368709 5368709 5368709 5368709 5368709 5368709 5368709 5368709 5368709 5368709 5368737 5368738 5368739 5368738 5368715 5368716 5368717 5368716 5368732 5368733 5368734 5368733 5368733 5368734 5368733 5368732 10737418 999999 0 10737418 5368718 5368719 5368718 5368717 5368729 5368730 5368729 5368728 5368744 5368745 5368744 5368743 5368746 5368747 5368746 5368745 5368720 5368719 5368718 5368719 
5368709 5368709 5368709 5368709 5368709 5368709 5368709 5368709 5368709 5368709 5368736 5368737 5368738 5368737 5368714 5368715 5368716 5368715 5368731 5368732 5368733 5368732 5368734 5368733 5368732 5368733 10737418 10737418 999999 0 5368719 5368718 5368717 5368718 5368730 5368729 5368728 5368729 5368745 5368744 5368743 5368744 5368747 5368746 5368745 5368746 5368721 5368720 5368719 5368720 
5368709 5368709 5368709 5368709 5368709 5368709 5368709 5368709 5368709 5368709 5368737 5368738 5368737 5368736 5368715 5368716 5368715 5368714 5368732 5368733 5368732 5368731 5368735 5368734 5368733 5368734 0 10737418 10737418 999999 5368720 5368719 5368718 5368719 5368731 5368730 5368729 5368730 5368746 5368745 5368744 5368745 5368748 5368747 5368746 5368747 5368722 5368721 5368720 5368721 
5368709 5368709 5368709 5368709 5368709 5368709 5368709 5368709 5368709 5368709 5368739 5368740 5368739 5368738 5368719 5368720 5368721 5368720 5368734 5368735 5368734 5368733 5368727 5368728 5368727 5368726 5368717 5368718 5368719 5368718 999999 0 10737418 10737418 5368723 5368724 5368723 5368722 5368738 5368739 5368738 5368737 5368740 5368741 5368740 5368739 5368720 5368719 5368718 5368719 
5368709 5368709 5368709 5368709 5368709 5368709 5368709 5368709 5368709 5368709 5368738 5368739 5368740 5368739 5368720 5368721 5368722 5368721 5368733 5368734 5368735 5368734 5368726 5368727 5368726 5368725 5368718 5368719 5368720 5368719 10737418 999999 0 10737418 5368722 5368723 5368722 5368721 5368737 5368738 5368737 5368736 5368739 5368740 5368739 5368738 5368719 5368718 5368719 5368720 
5368709 5368709 5368709 5368709 5368709 5368709 5368709 5368709 5368709 5368709 5368737 5368738 5368739 5368738 5368721 5368720 5368721 5368722 5368732 5368733 5368734 5368733 5368727 5368726 5368725 5368726 5368719 5368718 5368719 5368720 10737418 10737418 999999 0 5368723 5368722 5368721 5368722 5368738 5368737 5368736 5368737 5368740 5368739 5368738 5368739 5368720 5368719 5368720 5368721 
5368709 5368709 5368709 5368709 5368709 5368709 5368709 5368709 5368709 5368709 5368738 5368739 5368738 5368737 5368720 5368719 5368720 5368721 5368733 5368734 5368733 5368732 5368728 5368727 5368726 5368727 5368718 5368717 5368718 5368719 0 10737418 10737418 999999 5368724 5368723 5368722 5368723 5368739 5368738 5368737 5368738 5368741 5368740 5368739 5368740 5368721 5368720 5368719 5368720 
5368709 5368709 5368709 5368709 5368709 5368709 5368709 5368709 5368709 5368709 5368740 5368741 5368740 5368739 5368730 5368731 5368732 5368731 5368737 5368738 5368739 5368738 5368716 5368717 5368716 5368715 5368728 5368729 5368730 5368729 5368721 5368722 5368723 5368722 999999 0 10737418 10737418 5368735 5368736 5368735 5368734 5368733 5368734 5368733 5368732 5368719 5368720 5368721 5368720 
5368709 5368709 5368709 5368709 5368709 5368709 5368709 5368709 5368709 5368709 5368739 5368740 5368741 5368740 5368731 5368732 5368733 5368732 5368738 5368739 5368740 5368739 5368715 5368716 5368715 5368714 5368729 5368730 5368731 5368730 5368722 5368723 5368724 5368723 10737418 999999 0 10737418 5368734 5368735 5368736 5368735 5368732 5368733 5368734 5368733 5368720 5368721 5368722 5368721 
5368709 5368709 5368709 5368709 5368709 5368709 5368709 5368709 5368709 5368709 5368738 5368739 5368740 5368739 5368732 5368731 5368732 5368733 5368739 5368738 5368739 5368740 5368714 5368715 5368714 5368713 5368730 5368729 5368730 5368731 5368723 5368722 5368723 5368724 10737418 10737418 999999 0 5368733 5368734 5368735 5368734 5368731 5368732 5368733 5368732 5368721 5368720 5368721 5368722 
5368709 5368709 5368709 5368709 5368709 5368709 5368709 5368709 5368709 5368709 5368739 5368740 5368739 5368738 5368731 5368730 5368731 5368732 5368738 5368737 5368738 5368739 5368715 5368716 5368715 5368714 5368729 5368728 5368729 5368730 5368722 5368721 5368722 5368723 0 10737418 10737418 999999 5368734 5368735 5368734 5368733 5368732 5368733 5368732 5368731 5368720 5368719 5368720 5368721 
5368709 5368709 5368709 5368709 5368709 5368709 5368709 5368709 5368709 5368709 5368723 5368724 5368725 5368724 5368745 5368746 5368747 5368746 5368752 5368753 5368754 5368753 5368731 5368730 5368729 5368730 5368743 5368744 5368745 5368744 5368736 5368737 5368738 5368737 5368735 5368734 5368733 5368734 999999 0 10737418 10737418 5368714 5368713 5368712 5368713 5368742 5368741 5368740 5368741 
5368709 5368709 5368709 5368709 5368709 5368709 5368709 5368709 5368709 5368709 5368724 5368725 5368726 5368725 5368746 5368747 5368748 5368747 5368753 5368754 5368755 5368754 5368730 5368729 5368730 5368731 5368744 5368745 5368746 5368745 5368737 5368738 5368739 5368738 5368734 5368733 5368734 5368735 10737418 999999 0 10737418 5368713 5368712 5368711 5368712 5368741 5368740 5368741 5368742 
5368709 5368709 5368709 5368709 5368709 5368709 5368709 5368709 5368709 5368709 5368725 5368724 5368725 5368726 5368747 5368746 5368747 5368748 5368754 5368753 5368754 5368755 5368731 5368730 5368731 5368732 5368745 5368744 5368745 5368746 5368738 5368737 5368738 5368739 5368735 5368734 5368735 5368736 10737418 10737418 999999 0 5368714 5368713 5368712 5368713 5368742 5368741 5368742 5368743 
5368709 5368709 5368709 5368709 5368709 5368709 5368709 5368709 5368709 5368709 5368724 5368723 5368724 5368725 5368746 5368745 5368746 5368747 5368753 5368752 5368753 5368754 5368732 5368731 5368730 5368731 5368744 5368743 5368744 5368745 5368737 5368736 5368737 5368738 5368736 5368735 5368734 5368735 0 10737418 10737418 999999 5368715 5368714 5368713 5368714 5368743 5368742 5368741 5368742 
5368709 5368709 5368709 5368709 5368709 5368709 5368709 5368709 5368709 5368709 5368725 5368726 5368727 5368726 5368747 5368748 5368749 5368748 5368754 5368755 5368756 5368755 5368729 5368728 5368727 5368728 5368745 5368746 5368747 5368746 5368738 5368739 5368740 5368739 5368733 5368732 5368731 5368732 5368712 5368713 5368714 5368713 999999 0 10737418 10737418 5368740 5368739 5368738 5368739 
5368709 5368709 5368709 5368709 5368709 5368709 5368709 5368709 5368709 5368709 5368726 5368727 5368728 5368727 5368748 5368749 5368750 5368749 5368755 5368756 5368757 5368756 5368728 5368727 5368728 5368729 5368746 5368747 5368748 5368747 5368739 5368740 5368741 5368740 5368732 5368731 5368732 5368733 5368713 5368714 5368715 5368714 10737418 999999 0 10737418 5368739 5368738 5368739 5368740 
5368709 5368709 5368709 5368709 5368709 5368709 5368709 5368709 5368709 5368709 5368727 5368726 5368727 5368728 5368749 5368748 5368749 5368750 5368756 5368755 5368756 5368757 5368729 5368728 5368729 5368730 5368747 5368746 5368747 5368748 5368740 5368739 5368740 5368741 5368733 5368732 5368733 5368734 5368712 5368713 5368714 5368713 10737418 10737418 999999 0 5368740 5368739 5368740 5368741 
5368709 5368709 5368709 5368709 5368709 5368709 5368709 5368709 5368709 5368709 5368726 5368725 5368726 5368727 5368748 5368747 5368748 5368749 5368755 5368754 5368755 5368756 5368730 5368729 5368728 5368729 5368746 5368745 5368746 5368747 5368739 5368738 5368739 5368740 5368734 5368733 5368732 5368733 5368711 5368712 5368713 5368712 0 10737418 10737418 999999 5368741 5368740 5368739 5368740 
5368709 5368709 5368709 5368709 5368709 5368709 5368709 5368709 5368709 5368709 5368747 5368748 5368747 5368746 5368725 5368726 5368725 5368724 5368742 5368743 5368742 5368741 5368725 5368726 5368725 5368724 5368719 5368720 5368721 5368720 5368720 5368721 5368720 5368719 5368721 5368722 5368721 5368720 5368742 5368743 5368742 5368741 5368740 5368741 5368740 5368739 999999 0 10737418 10737418 
5368709 5368709 5368709 5368709 5368709 5368709 5368709 5368709 5368709 5368709 5368746 5368747 5368748 5368747 5368724 5368725 5368726 5368725 5368741 5368742 5368743 5368742 5368724 5368725 5368724 5368723 5368720 5368721 5368722 5368721 5368719 5368720 5368721 5368720 5368720 5368721 5368720 5368719 5368741 5368742 5368743 5368742 5368739 5368740 5368741 5368740 10737418 999999 0 10737418 
5368709 5368709 5368709 5368709 5368709 5368709 5368709 5368709 5368709 5368709 5368745 5368746 5368747 5368746 5368723 5368724 5368725 5368724 5368740 5368741 5368742 5368741 5368725 5368724 5368723 5368724 5368719 5368720 5368721 5368720 5368718 5368719 5368720 5368719 5368721 5368720 5368719 5368720 5368740 5368741 5368742 5368741 5368738 5368739 5368740 5368739 10737418 10737418 999999 0 
5368709 5368709 5368709 5368709 5368709 5368709 5368709 5368709 5368709 5368709 5368746 5368747 5368746 5368745 5368724 5368725 5368724 5368723 5368741 5368742 5368741 5368740 5368726 5368725 5368724 5368725 5368718 5368719 5368720 5368719 5368719 5368720 5368719 5368718 5368722 5368721 5368720 5368721 5368741 5368742 5368741 5368740 5368739 5368740 5368739 5368738 0 10737418 10737418 999999 
EOF
