GLKH-1.1/TMP/mEgtspf.pid4132.tour
NAME : mEgtspf.pid4132.gtsp.107374253.tour
COMMENT : Length = 107374253
COMMENT : Found by LKH [Keld Helsgaun] Wed May  7 11:28:58 2025
TYPE : TOUR
DIMENSION : 50
TOUR_SECTION
1
9
2
41
42
39
40
45
46
43
44
8
13
14
11
12
3
19
20
21
22
4
32
33
34
31
27
28
29
30
18
15
16
17
7
24
25
26
23
36
37
38
35
47
48
49
50
10
5
6
-1
EOF
